33D32945 STP File, STP Format Version 1.0

SECTION Comments
Name "shell_n10_d2_s3"
Problem "Euclidean Steiner Tree Problem"
Remark "Generated with STPGenerator. 2 dimensions."
END

SECTION Graph
Nodes 10
END

SECTION Coordinates
DD 0 0.2178277532 -0.9759872284
DD 1 -0.8856201230 -0.4644103764
DD 2 -0.5177283014 -0.8555450928
DD 3 0.1716875884 0.9851514462
DD 4 0.8266132862 -0.5627703573
DD 5 -0.9968566756 -0.0792260583
DD 6 -0.9317204937 0.3631761578
DD 7 -0.9926337015 -0.1211541775
DD 8 -0.9252511318 -0.3793551676
DD 9 -0.9901349579 0.1401169697
END
